GLPSOL: GLPK LP/MIP Solver, v4.65
Parameter(s) specified in the command line:
 --model vibor_stankov.mod --data ViborEquipment.txt --log Mistake.txt --clique
Reading model section from vibor_stankov.mod...
vibor_stankov.mod:143: warning: unexpected end of file; missing end statement inserted
143 lines were read
Reading data section from ViborEquipment.txt...
ViborEquipment.txt:1: character ï not allowed
Context:                                                             
MathProg model processing error
